Assignment_2/Question_09/solution.sol
# Objective value = 5
a_00 0
a_01 1
a_02 1
a_03 0
a_10 0
a_11 0
a_12 0
a_13 1
a_20 0
a_21 1
a_22 0
a_23 0
a_30 0
a_31 0
a_32 1
a_33 0
x_00 0
x_01 0
x_02 0
x_03 0
x_04 0
x_05 1
x_06 0
x_07 0
x_08 0
x_09 0
x_0a 1
x_0b 0
x_0c 0
x_0d 0
x_0e 0
x_0f 0
x_10 0
x_14 0
x_18 0
x_1c 0
x_11 0
x_15 0
x_19 0
x_1d 0
x_12 0
x_16 0
x_1a 0
x_1e 0
x_13 0
x_17 1
x_1b 1
x_1f 1
x_20 0
x_24 0
x_28 0
x_2c 0
x_21 0
x_25 0
x_29 0
x_2d 1
x_22 0
x_26 0
x_2a 0
x_2e 0
x_23 0
x_27 0
x_2b 0
x_2f 0
x_30 0
x_34 0
x_38 0
x_3c 0
x_31 0
x_35 0
x_39 0
x_3d 0
x_32 0
x_36 1
x_3a 0
x_3e 0
x_33 0
x_37 0
x_3b 0
x_3f 0
x-07 0
x_40 0
x_41 0
x_42 0
x_43 0
x_44 0
x_45 0
x_46 0
x_47 0
x_48 0
x_49 0
x_4a 1
x_4b 0
x_4c 0
x_4d 0
x_4e 0
x_4f 0
